40
1 0 53
2 0 19
2 1 36
3 0 15
3 1 40
3 2 17
4 0 89
4 1 10
4 2 12
4 3 25
5 0 89
5 1 71
5 2 86
5 3 69
5 4 34
6 0 48
6 1 48
6 2 71
6 3 91
6 4 75
6 5 10
7 0 30
7 1 6
7 2 3
7 3 29
7 4 86
7 5 17
7 6 26
8 0 44
8 1 31
8 2 65
8 3 82
8 4 25
8 5 65
8 6 90
8 7 25
9 0 64
9 1 31
9 2 69
9 3 30
9 4 39
9 5 73
9 6 32
9 7 75
9 8 27
10 0 95
10 1 40
10 2 2
10 3 58
10 4 22
10 5 52
10 6 57
10 7 37
10 8 83
10 9 78
11 0 57
11 1 61
11 2 75
11 3 9
11 4 44
11 5 18
11 6 77
11 7 82
11 8 8
11 9 52
11 10 15
12 0 99
12 1 2
12 2 15
12 3 8
12 4 25
12 5 79
12 6 54
12 7 40
12 8 29
12 9 17
12 10 94
12 11 32
13 0 35
13 1 23
13 2 21
13 3 29
13 4 13
13 5 18
13 6 78
13 7 1
13 8 18
13 9 55
13 10 15
13 11 36
13 12 49
14 0 26
14 1 76
14 2 81
14 3 100
14 4 40
14 5 98
14 6 44
14 7 23
14 8 96
14 9 56
14 10 69
14 11 13
14 12 86
14 13 94
15 0 54
15 1 97
15 2 83
15 3 4
15 4 59
15 5 85
15 6 10
15 7 62
15 8 40
15 9 14
15 10 2
15 11 24
15 12 98
15 13 87
15 14 99
16 0 39
16 1 25
16 2 96
16 3 21
16 4 37
16 5 98
16 6 82
16 7 42
16 8 97
16 9 35
16 10 60
16 11 34
16 12 8
16 13 38
16 14 25
16 15 66
17 0 66
17 1 67
17 2 13
17 3 75
17 4 79
17 5 21
17 6 72
17 7 34
17 8 74
17 9 38
17 10 84
17 11 10
17 12 27
17 13 20
17 14 36
17 15 50
17 16 53
18 0 52
18 1 25
18 2 72
18 3 29
18 4 76
18 5 53
18 6 29
18 7 57
18 8 35
18 9 44
18 10 75
18 11 54
18 12 94
18 13 95
18 14 69
18 15 54
18 16 5
18 17 21
19 0 64
19 1 56
19 2 83
19 3 92
19 4 92
19 5 30
19 6 96
19 7 42
19 8 46
19 9 2
19 10 94
19 11 6
19 12 88
19 13 52
19 14 23
19 15 23
19 16 67
19 17 97
19 18 10
20 0 5
20 1 19
20 2 61
20 3 7
20 4 56
20 5 62
20 6 41
20 7 26
20 8 97
20 9 37
20 10 19
20 11 22
20 12 33
20 13 43
20 14 86
20 15 80
20 16 59
20 17 60
20 18 78
20 19 28
21 0 2
21 1 78
21 2 30
21 3 83
21 4 31
21 5 55
21 6 13
21 7 4
21 8 2
21 9 93
21 10 1
21 11 93
21 12 2
21 13 84
21 14 75
21 15 78
21 16 19
21 17 73
21 18 84
21 19 85
21 20 53
22 0 56
22 1 100
22 2 56
22 3 31
22 4 82
22 5 40
22 6 77
22 7 11
22 8 47
22 9 48
22 10 41
22 11 75
22 12 86
22 13 60
22 14 41
22 15 47
22 16 18
22 17 93
22 18 66
22 19 92
22 20 89
22 21 21
23 0 69
23 1 78
23 2 6
23 3 45
23 4 100
23 5 5
23 6 78
23 7 70
23 8 38
23 9 34
23 10 8
23 11 24
23 12 75
23 13 73
23 14 79
23 15 8
23 16 14
23 17 9
23 18 44
23 19 55
23 20 93
23 21 71
23 22 17
24 0 16
24 1 60
24 2 85
24 3 15
24 4 35
24 5 42
24 6 53
24 7 100
24 8 61
24 9 90
24 10 49
24 11 27
24 12 6
24 13 98
24 14 41
24 15 91
24 16 57
24 17 20
24 18 63
24 19 25
24 20 100
24 21 40
24 22 95
24 23 12
25 0 8
25 1 64
25 2 42
25 3 84
25 4 2
25 5 41
25 6 5
25 7 40
25 8 94
25 9 31
25 10 85
25 11 10
25 12 69
25 13 79
25 14 72
25 15 29
25 16 51
25 17 65
25 18 5
25 19 7
25 20 78
25 21 26
25 22 6
25 23 21
25 24 84
26 0 89
26 1 18
26 2 44
26 3 32
26 4 50
26 5 11
26 6 96
26 7 84
26 8 87
26 9 32
26 10 89
26 11 82
26 12 97
26 13 98
26 14 94
26 15 73
26 16 91
26 17 91
26 18 49
26 19 18
26 20 93
26 21 69
26 22 88
26 23 49
26 24 14
26 25 22
27 0 71
27 1 78
27 2 17
27 3 37
27 4 29
27 5 67
27 6 75
27 7 36
27 8 57
27 9 13
27 10 97
27 11 24
27 12 32
27 13 10
27 14 77
27 15 33
27 16 27
27 17 82
27 18 80
27 19 82
27 20 46
27 21 11
27 22 81
27 23 58
27 24 8
27 25 1
27 26 18
28 0 1
28 1 57
28 2 49
28 3 24
28 4 61
28 5 67
28 6 15
28 7 39
28 8 35
28 9 75
28 10 7
28 11 40
28 12 17
28 13 64
28 14 35
28 15 23
28 16 19
28 17 64
28 18 97
28 19 24
28 20 40
28 21 64
28 22 87
28 23 68
28 24 100
28 25 42
28 26 50
28 27 92
29 0 54
29 1 52
29 2 31
29 3 64
29 4 61
29 5 31
29 6 78
29 7 96
29 8 72
29 9 15
29 10 99
29 11 45
29 12 64
29 13 79
29 14 91
29 15 23
29 16 24
29 17 31
29 18 87
29 19 69
29 20 73
29 21 29
29 22 91
29 23 58
29 24 84
29 25 15
29 26 80
29 27 56
29 28 11
30 0 61
30 1 23
30 2 28
30 3 64
30 4 84
30 5 26
30 6 66
30 7 85
30 8 78
30 9 3
30 10 5
30 11 98
30 12 66
30 13 40
30 14 32
30 15 54
30 16 68
30 17 95
30 18 1
30 19 87
30 20 36
30 21 64
30 22 27
30 23 58
30 24 12
30 25 79
30 26 10
30 27 43
30 28 1
30 29 50
31 0 3
31 1 94
31 2 67
31 3 52
31 4 50
31 5 92
31 6 97
31 7 5
31 8 40
31 9 55
31 10 87
31 11 31
31 12 50
31 13 76
31 14 47
31 15 53
31 16 85
31 17 7
31 18 30
31 19 90
31 20 35
31 21 10
31 22 28
31 23 62
31 24 100
31 25 40
31 26 98
31 27 92
31 28 60
31 29 41
31 30 99
32 0 91
32 1 87
32 2 51
32 3 63
32 4 54
32 5 34
32 6 65
32 7 34
32 8 96
32 9 35
32 10 99
32 11 28
32 12 16
32 13 6
32 14 42
32 15 24
32 16 62
32 17 41
32 18 100
32 19 71
32 20 41
32 21 30
32 22 69
32 23 78
32 24 90
32 25 48
32 26 87
32 27 25
32 28 6
32 29 91
32 30 51
32 31 95
33 0 6
33 1 62
33 2 7
33 3 43
33 4 43
33 5 24
33 6 35
33 7 31
33 8 37
33 9 87
33 10 98
33 11 97
33 12 61
33 13 79
33 14 34
33 15 44
33 16 2
33 17 32
33 18 85
33 19 64
33 20 11
33 21 81
33 22 18
33 23 32
33 24 66
33 25 43
33 26 66
33 27 39
33 28 50
33 29 45
33 30 1
33 31 41
33 32 11
34 0 5
34 1 18
34 2 47
34 3 36
34 4 84
34 5 83
34 6 81
34 7 79
34 8 68
34 9 85
34 10 77
34 11 17
34 12 57
34 13 92
34 14 99
34 15 22
34 16 44
34 17 95
34 18 2
34 19 67
34 20 31
34 21 92
34 22 62
34 23 24
34 24 24
34 25 55
34 26 45
34 27 2
34 28 73
34 29 74
34 30 4
34 31 39
34 32 74
34 33 70
35 0 13
35 1 49
35 2 49
35 3 22
35 4 78
35 5 89
35 6 47
35 7 53
35 8 83
35 9 93
35 10 68
35 11 69
35 12 71
35 13 86
35 14 70
35 15 46
35 16 56
35 17 81
35 18 25
35 19 8
35 20 24
35 21 17
35 22 50
35 23 35
35 24 61
35 25 100
35 26 88
35 27 11
35 28 20
35 29 40
35 30 59
35 31 85
35 32 31
35 33 8
35 34 82
36 0 2
36 1 75
36 2 54
36 3 36
36 4 53
36 5 24
36 6 54
36 7 26
36 8 23
36 9 88
36 10 83
36 11 60
36 12 40
36 13 23
36 14 32
36 15 59
36 16 71
36 17 7
36 18 17
36 19 50
36 20 5
36 21 71
36 22 37
36 23 21
36 24 19
36 25 50
36 26 87
36 27 35
36 28 20
36 29 92
36 30 49
36 31 28
36 32 8
36 33 36
36 34 86
36 35 45
37 0 2
37 1 48
37 2 25
37 3 89
37 4 31
37 5 80
37 6 21
37 7 77
37 8 69
37 9 80
37 10 13
37 11 34
37 12 75
37 13 89
37 14 24
37 15 80
37 16 74
37 17 78
37 18 71
37 19 72
37 20 66
37 21 28
37 22 79
37 23 15
37 24 77
37 25 48
37 26 21
37 27 60
37 28 68
37 29 90
37 30 20
37 31 38
37 32 82
37 33 2
37 34 96
37 35 13
37 36 83
38 0 26
38 1 39
38 2 49
38 3 16
38 4 39
38 5 29
38 6 13
38 7 8
38 8 86
38 9 61
38 10 73
38 11 73
38 12 59
38 13 24
38 14 62
38 15 93
38 16 18
38 17 42
38 18 5
38 19 98
38 20 61
38 21 87
38 22 40
38 23 56
38 24 82
38 25 21
38 26 82
38 27 46
38 28 80
38 29 24
38 30 100
38 31 92
38 32 14
38 33 2
38 34 22
38 35 61
38 36 100
38 37 3
39 0 69
39 1 53
39 2 11
39 3 85
39 4 95
39 5 52
39 6 14
39 7 89
39 8 90
39 9 11
39 10 68
39 11 33
39 12 55
39 13 77
39 14 56
39 15 31
39 16 69
39 17 90
39 18 27
39 19 88
39 20 3
39 21 18
39 22 77
39 23 35
39 24 56
39 25 95
39 26 87
39 27 10
39 28 13
39 29 84
39 30 3
39 31 81
39 32 42
39 33 93
39 34 21
39 35 86
39 36 95
39 37 88
39 38 24
